(set-info :source |printed by MathSAT|)
(declare-fun |!{$(in_main#0)<N>}| () Int)
(declare-fun |!{$(in_main#0)<N>}.next| () Int)
(declare-fun |!{$(in_main#0)<idx>}| () Int)
(declare-fun |!{$(in_main#0)<idx>}.next| () Int)
(declare-fun |!{$(in_main#0)<j>}| () Int)
(declare-fun |!{$(in_main#0)<j>}.next| () Int)
(declare-fun |!{$(in_main#0)<k>}| () Int)
(declare-fun |!{$(in_main#0)<k>}.next| () Int)
(declare-fun |!{$(in_main#0)<k#1>}| () Int)
(declare-fun |!{$(in_main#0)<k#1>}.next| () Int)
(declare-fun |!{$(in_main#0)<v>}| () Int)
(declare-fun |!{$(in_main#0)<v>}.next| () Int)
(declare-fun |!{$(in_main#0)<array.1>}| () (Array Int Int))
(declare-fun |!{$(in_main#0)<array.1>}.next| () (Array Int Int))
(declare-fun |!{$(in_main#0)<$(in___VERIFIER_nondet_int#0)<h#<__VERIFIER_nondet_int.return>>>}| () Int)
(declare-fun |!{$(in_main#0)<$(in___VERIFIER_nondet_int#2)<h#<__VERIFIER_nondet_int.return>>>}| () Int)
(declare-fun |!{$(in_main#0)<$(in___VERIFIER_nondet_int#3)<h#<__VERIFIER_nondet_int.return>>>}| () Int)
(declare-fun !pc () Int)
(declare-fun !pc.next () Int)
(declare-fun |%{$(in_main#0)<idx>}#1| () Int)
(declare-fun |%{$(in_main#0)<j>}#1| () Int)
(declare-fun |%{$(in_main#0)<k#1>}#1| () Int)
(declare-fun |%{$(in_main#0)<v>}#1| () Int)
(declare-fun |%{$(in_main#0)<array.1>}#1| () (Array Int Int))
(declare-fun |%{$(in_main#0)<idx>}#2| () Int)
(define-fun .def_41 () Int (! !pc :next !pc.next))
(define-fun .def_44 () Bool (! (= .def_41 2) :init true))
(define-fun .def_238 () Bool (= .def_41 42))
(define-fun .def_204 () Bool (= !pc.next 71))
(define-fun .def_241 () Bool (and .def_204 .def_238))
(define-fun .def_234 () Bool (= |!{$(in_main#0)<v>}.next| |!{$(in_main#0)<$(in___VERIFIER_nondet_int#3)<h#<__VERIFIER_nondet_int.return>>>}|))
(define-fun .def_8 () Int (! |!{$(in_main#0)<N>}| :next |!{$(in_main#0)<N>}.next|))
(define-fun .def_230 () Bool (= .def_8 |!{$(in_main#0)<j>}.next|))
(define-fun .def_228 () Bool (= |!{$(in_main#0)<idx>}.next| (- 1)))
(define-fun .def_92 () Bool (= .def_8 |!{$(in_main#0)<N>}.next|))
(define-fun .def_229 () Bool (and .def_92 .def_228))
(define-fun .def_231 () Bool (and .def_229 .def_230))
(define-fun .def_14 () Int (! |!{$(in_main#0)<k>}| :next |!{$(in_main#0)<k>}.next|))
(define-fun .def_98 () Bool (= .def_14 |!{$(in_main#0)<k>}.next|))
(define-fun .def_232 () Bool (and .def_98 .def_231))
(define-fun .def_16 () Int (! |!{$(in_main#0)<k#1>}| :next |!{$(in_main#0)<k#1>}.next|))
(define-fun .def_100 () Bool (= .def_16 |!{$(in_main#0)<k#1>}.next|))
(define-fun .def_233 () Bool (and .def_100 .def_232))
(define-fun .def_235 () Bool (and .def_233 .def_234))
(define-fun .def_20 () (Array Int Int) (! |!{$(in_main#0)<array.1>}| :next |!{$(in_main#0)<array.1>}.next|))
(define-fun .def_104 () Bool (= .def_20 |!{$(in_main#0)<array.1>}.next|))
(define-fun .def_236 () Bool (and .def_104 .def_235))
(define-fun .def_215 () Bool (<= .def_8 .def_14))
(define-fun .def_237 () Bool (and .def_215 .def_236))
(define-fun .def_242 () Bool (and .def_237 .def_241))
(define-fun .def_78 () Bool (= !pc.next 42))
(define-fun .def_239 () Bool (and .def_78 .def_238))
(define-fun .def_217 () (Array Int Int) (store .def_20 .def_14 |!{$(in_main#0)<$(in___VERIFIER_nondet_int#2)<h#<__VERIFIER_nondet_int.return>>>}|))
(define-fun .def_225 () Bool (= |!{$(in_main#0)<array.1>}.next| .def_217))
(define-fun .def_219 () Int (* (- 1) |!{$(in_main#0)<k>}.next|))
(define-fun .def_220 () Int (+ .def_14 .def_219))
(define-fun .def_221 () Bool (= .def_220 (- 1)))
(define-fun .def_10 () Int (! |!{$(in_main#0)<idx>}| :next |!{$(in_main#0)<idx>}.next|))
(define-fun .def_94 () Bool (= .def_10 |!{$(in_main#0)<idx>}.next|))
(define-fun .def_107 () Bool (and .def_92 .def_94))
(define-fun .def_12 () Int (! |!{$(in_main#0)<j>}| :next |!{$(in_main#0)<j>}.next|))
(define-fun .def_96 () Bool (= .def_12 |!{$(in_main#0)<j>}.next|))
(define-fun .def_108 () Bool (and .def_96 .def_107))
(define-fun .def_222 () Bool (and .def_108 .def_221))
(define-fun .def_223 () Bool (and .def_100 .def_222))
(define-fun .def_18 () Int (! |!{$(in_main#0)<v>}| :next |!{$(in_main#0)<v>}.next|))
(define-fun .def_102 () Bool (= .def_18 |!{$(in_main#0)<v>}.next|))
(define-fun .def_224 () Bool (and .def_102 .def_223))
(define-fun .def_226 () Bool (and .def_224 .def_225))
(define-fun .def_216 () Bool (not .def_215))
(define-fun .def_227 () Bool (and .def_216 .def_226))
(define-fun .def_240 () Bool (and .def_227 .def_239))
(define-fun .def_243 () Bool (or .def_240 .def_242))
(define-fun .def_203 () Bool (= .def_41 71))
(define-fun .def_129 () Bool (= !pc.next 99))
(define-fun .def_211 () Bool (and .def_129 .def_203))
(define-fun .def_196 () Bool (= |!{$(in_main#0)<k#1>}.next| 0))
(define-fun .def_109 () Bool (and .def_98 .def_108))
(define-fun .def_197 () Bool (and .def_109 .def_196))
(define-fun .def_198 () Bool (and .def_102 .def_197))
(define-fun .def_199 () Bool (and .def_104 .def_198))
(define-fun .def_163 () Bool (= .def_10 (- 1)))
(define-fun .def_200 () Bool (and .def_163 .def_199))
(define-fun .def_143 () Bool (<= .def_12 0))
(define-fun .def_201 () Bool (and .def_143 .def_200))
(define-fun .def_212 () Bool (and .def_201 .def_211))
(define-fun .def_207 () Bool (= !pc.next 145))
(define-fun .def_208 () Bool (and .def_203 .def_207))
(define-fun .def_165 () Int (select .def_20 .def_10))
(define-fun .def_166 () Bool (= .def_18 .def_165))
(define-fun .def_167 () Int (ite .def_166 1 0))
(define-fun .def_168 () Bool (= .def_167 0))
(define-fun .def_187 () Bool (and .def_92 .def_168))
(define-fun .def_188 () Bool (and .def_94 .def_187))
(define-fun .def_189 () Bool (and .def_96 .def_188))
(define-fun .def_190 () Bool (and .def_98 .def_189))
(define-fun .def_191 () Bool (and .def_100 .def_190))
(define-fun .def_192 () Bool (and .def_102 .def_191))
(define-fun .def_193 () Bool (and .def_104 .def_192))
(define-fun .def_164 () Bool (not .def_163))
(define-fun .def_194 () Bool (and .def_164 .def_193))
(define-fun .def_195 () Bool (and .def_143 .def_194))
(define-fun .def_209 () Bool (and .def_195 .def_208))
(define-fun .def_205 () Bool (and .def_203 .def_204))
(define-fun .def_177 () Int (* (- 1) |!{$(in_main#0)<j>}.next|))
(define-fun .def_178 () Int (+ .def_12 .def_177))
(define-fun .def_179 () Bool (= .def_178 1))
(define-fun .def_175 () Bool (= |!{$(in_main#0)<idx>}.next| |%{$(in_main#0)<idx>}#2|))
(define-fun .def_176 () Bool (and .def_92 .def_175))
(define-fun .def_180 () Bool (and .def_176 .def_179))
(define-fun .def_181 () Bool (and .def_98 .def_180))
(define-fun .def_182 () Bool (and .def_100 .def_181))
(define-fun .def_183 () Bool (and .def_102 .def_182))
(define-fun .def_184 () Bool (and .def_104 .def_183))
(define-fun .def_156 () Int (* (- 1) |%{$(in_main#0)<idx>}#2|))
(define-fun .def_157 () Int (+ .def_12 .def_156))
(define-fun .def_158 () Bool (= .def_157 1))
(define-fun .def_145 () Int (+ .def_12 (- 1)))
(define-fun .def_146 () Int (select .def_20 .def_145))
(define-fun .def_147 () Bool (= .def_18 .def_146))
(define-fun .def_160 () Bool (and .def_147 .def_158))
(define-fun .def_155 () Bool (= .def_10 |%{$(in_main#0)<idx>}#2|))
(define-fun .def_148 () Bool (not .def_147))
(define-fun .def_159 () Bool (and .def_148 .def_155))
(define-fun .def_161 () Bool (or .def_159 .def_160))
(define-fun .def_185 () Bool (and .def_161 .def_184))
(define-fun .def_144 () Bool (not .def_143))
(define-fun .def_186 () Bool (and .def_144 .def_185))
(define-fun .def_206 () Bool (and .def_186 .def_205))
(define-fun .def_210 () Bool (or .def_206 .def_209))
(define-fun .def_213 () Bool (or .def_210 .def_212))
(define-fun .def_133 () Bool (= !pc.next 0))
(define-fun .def_124 () Bool (= .def_41 99))
(define-fun .def_134 () Bool (and .def_124 .def_133))
(define-fun .def_119 () Bool (and .def_100 .def_109))
(define-fun .def_120 () Bool (and .def_102 .def_119))
(define-fun .def_121 () Bool (and .def_104 .def_120))
(define-fun .def_81 () Bool (<= .def_8 .def_16))
(define-fun .def_122 () Bool (and .def_81 .def_121))
(define-fun .def_135 () Bool (and .def_122 .def_134))
(define-fun .def_130 () Bool (and .def_124 .def_129))
(define-fun .def_111 () Int (* (- 1) |!{$(in_main#0)<k#1>}.next|))
(define-fun .def_112 () Int (+ .def_16 .def_111))
(define-fun .def_113 () Bool (= .def_112 (- 1)))
(define-fun .def_114 () Bool (and .def_109 .def_113))
(define-fun .def_115 () Bool (and .def_102 .def_114))
(define-fun .def_116 () Bool (and .def_104 .def_115))
(define-fun .def_83 () Int (select .def_20 .def_16))
(define-fun .def_84 () Bool (= .def_18 .def_83))
(define-fun .def_85 () Bool (not .def_84))
(define-fun .def_86 () Int (ite .def_85 1 0))
(define-fun .def_87 () Bool (= .def_86 0))
(define-fun .def_88 () Bool (not .def_87))
(define-fun .def_117 () Bool (and .def_88 .def_116))
(define-fun .def_82 () Bool (not .def_81))
(define-fun .def_118 () Bool (and .def_82 .def_117))
(define-fun .def_131 () Bool (and .def_118 .def_130))
(define-fun .def_126 () Bool (= !pc.next 119))
(define-fun .def_127 () Bool (and .def_124 .def_126))
(define-fun .def_93 () Bool (and .def_87 .def_92))
(define-fun .def_95 () Bool (and .def_93 .def_94))
(define-fun .def_97 () Bool (and .def_95 .def_96))
(define-fun .def_99 () Bool (and .def_97 .def_98))
(define-fun .def_101 () Bool (and .def_99 .def_100))
(define-fun .def_103 () Bool (and .def_101 .def_102))
(define-fun .def_105 () Bool (and .def_103 .def_104))
(define-fun .def_106 () Bool (and .def_82 .def_105))
(define-fun .def_128 () Bool (and .def_106 .def_127))
(define-fun .def_132 () Bool (or .def_128 .def_131))
(define-fun .def_136 () Bool (or .def_132 .def_135))
(define-fun .def_79 () Bool (and .def_44 .def_78))
(define-fun .def_74 () Bool (= |!{$(in_main#0)<array.1>}.next| |%{$(in_main#0)<array.1>}#1|))
(define-fun .def_72 () Bool (= |!{$(in_main#0)<v>}.next| |%{$(in_main#0)<v>}#1|))
(define-fun .def_70 () Bool (= |!{$(in_main#0)<k#1>}.next| |%{$(in_main#0)<k#1>}#1|))
(define-fun .def_68 () Bool (= |!{$(in_main#0)<k>}.next| 0))
(define-fun .def_66 () Bool (= |!{$(in_main#0)<j>}.next| |%{$(in_main#0)<j>}#1|))
(define-fun .def_64 () Bool (= |!{$(in_main#0)<idx>}.next| |%{$(in_main#0)<idx>}#1|))
(define-fun .def_63 () Bool (= |!{$(in_main#0)<N>}.next| |!{$(in_main#0)<$(in___VERIFIER_nondet_int#0)<h#<__VERIFIER_nondet_int.return>>>}|))
(define-fun .def_65 () Bool (and .def_63 .def_64))
(define-fun .def_67 () Bool (and .def_65 .def_66))
(define-fun .def_69 () Bool (and .def_67 .def_68))
(define-fun .def_71 () Bool (and .def_69 .def_70))
(define-fun .def_73 () Bool (and .def_71 .def_72))
(define-fun .def_75 () Bool (and .def_73 .def_74))
(define-fun .def_58 () Bool (<= |!{$(in_main#0)<$(in___VERIFIER_nondet_int#0)<h#<__VERIFIER_nondet_int.return>>>}| 0))
(define-fun .def_59 () Bool (not .def_58))
(define-fun .def_60 () Int (ite .def_59 1 0))
(define-fun .def_61 () Bool (= .def_60 0))
(define-fun .def_62 () Bool (not .def_61))
(define-fun .def_76 () Bool (and .def_62 .def_75))
(define-fun .def_80 () Bool (and .def_76 .def_79))
(define-fun .def_137 () Bool (or .def_80 .def_136))
(define-fun .def_214 () Bool (or .def_137 .def_213))
(define-fun .def_244 () Bool (! (or .def_214 .def_243) :trans true))
(define-fun .def_141 () Bool (= .def_41 145))
(define-fun .def_138 () Bool (= .def_41 119))
(define-fun .def_245 () Bool (or .def_138 .def_141))
(define-fun .def_246 () Bool (! (not .def_245) :invar-property 0 :invar-property-name ||))
(assert true)
